data;

set A := 834612 446170 207939 197771 214671 577543 586806 214764 671368 91572 174787 927931 207334 171630 415668 984530 455431 367790 154445 909527 44580 671382 175502 56823;
param T := 6000000;

end;
